  Job Started  at 11:23.43 28th March      2013

  Number of CPUs =     1

  Total number of configurations input =   1

*  Input for Configuration =   1                                               *

  Formula = Mg32O32

  Number of irreducible atoms/shells =      64

  Total number atoms/shells =      64

  Dimensionality = 3               :  Bulk

  Cartesian lattice vectors (Angstroms) :

        8.200000    0.000000    0.000000
        0.000000    8.200000    0.000000
        0.000000    0.000000    8.200000

  Cell parameters (Angstroms/Degrees):

  a =       8.2000    alpha =  90.0000
  b =       8.2000    beta  =  90.0000
  c =       8.2000    gamma =  90.0000

  Initial cell volume =         551.368000 Angs**3

  Temperature of configuration =  0.000     K

  Pressure of configuration =         0.000 GPa

  Fractional coordinates of asymmetric unit :

   No.  Atomic       x           y          z         Charge      Occupancy
        Label      (Frac)      (Frac)     (Frac)        (e)         (Frac)
      1 Mg1   c    0.000000    0.000000    0.000000     2.00000    1.000000
      2 Mg1   c    0.000000    0.000000    0.500000     2.00000    1.000000
      3 Mg1   c    0.000000    0.500000    0.000000     2.00000    1.000000
      4 Mg1   c    0.000000    0.500000    0.500000     2.00000    1.000000
      5 Mg1   c    0.500000    0.000000    0.000000     2.00000    1.000000
      6 Mg1   c    0.500000    0.000000    0.500000     2.00000    1.000000
      7 Mg1   c    0.500000    0.500000    0.000000     2.00000    1.000000
      8 Mg1   c    0.500000    0.500000    0.500000     2.00000    1.000000
      9 Mg1   c    0.000000    0.250000    0.250000     2.00000    1.000000
     10 Mg1   c    0.000000    0.250000    0.750000     2.00000    1.000000
     11 Mg1   c    0.000000    0.750000    0.250000     2.00000    1.000000
     12 Mg1   c    0.000000    0.750000    0.750000     2.00000    1.000000
     13 Mg1   c    0.500000    0.250000    0.250000     2.00000    1.000000
     14 Mg1   c    0.500000    0.250000    0.750000     2.00000    1.000000
     15 Mg1   c    0.500000    0.750000    0.250000     2.00000    1.000000
     16 Mg1   c    0.500000    0.750000    0.750000     2.00000    1.000000
     17 Mg1   c    0.250000    0.250000    0.000000     2.00000    1.000000
     18 Mg1   c    0.250000    0.250000    0.500000     2.00000    1.000000
     19 Mg1   c    0.250000    0.750000    0.000000     2.00000    1.000000
     20 Mg1   c    0.250000    0.750000    0.500000     2.00000    1.000000
     21 Mg1   c    0.750000    0.250000    0.000000     2.00000    1.000000
     22 Mg1   c    0.750000    0.250000    0.500000     2.00000    1.000000
     23 Mg1   c    0.750000    0.750000    0.000000     2.00000    1.000000
     24 Mg1   c    0.750000    0.750000    0.500000     2.00000    1.000000
     25 Mg1   c    0.250000    0.000000    0.250000     2.00000    1.000000
     26 Mg1   c    0.250000    0.000000    0.750000     2.00000    1.000000
     27 Mg1   c    0.250000    0.500000    0.250000     2.00000    1.000000
     28 Mg1   c    0.250000    0.500000    0.750000     2.00000    1.000000
     29 Mg1   c    0.750000    0.000000    0.250000     2.00000    1.000000
     30 Mg1   c    0.750000    0.000000    0.750000     2.00000    1.000000
     31 Mg1   c    0.750000    0.500000    0.250000     2.00000    1.000000
     32 Mg1   c    0.750000    0.500000    0.750000     2.00000    1.000000
     33 O1    c    0.250000    0.250000    0.250000    -2.00000    1.000000
     34 O1    c    0.250000    0.250000    0.750000    -2.00000    1.000000
     35 O1    c    0.250000    0.750000    0.250000    -2.00000    1.000000
     36 O1    c    0.250000    0.750000    0.750000    -2.00000    1.000000
     37 O1    c    0.750000    0.250000    0.250000    -2.00000    1.000000
     38 O1    c    0.750000    0.250000    0.750000    -2.00000    1.000000
     39 O1    c    0.750000    0.750000    0.250000    -2.00000    1.000000
     40 O1    c    0.750000    0.750000    0.750000    -2.00000    1.000000
     41 O1    c    0.250000    0.000000    0.000000    -2.00000    1.000000
     42 O1    c    0.250000    0.000000    0.500000    -2.00000    1.000000
     43 O1    c    0.250000    0.500000    0.000000    -2.00000    1.000000
     44 O1    c    0.250000    0.500000    0.500000    -2.00000    1.000000
     45 O1    c    0.750000    0.000000    0.000000    -2.00000    1.000000
     46 O1    c    0.750000    0.000000    0.500000    -2.00000    1.000000
     47 O1    c    0.750000    0.500000    0.000000    -2.00000    1.000000
     48 O1    c    0.750000    0.500000    0.500000    -2.00000    1.000000
     49 O1    c    0.000000    0.000000    0.250000    -2.00000    1.000000
     50 O1    c    0.000000    0.000000    0.750000    -2.00000    1.000000
     51 O1    c    0.000000    0.500000    0.250000    -2.00000    1.000000
     52 O1    c    0.000000    0.500000    0.750000    -2.00000    1.000000
     53 O1    c    0.500000    0.000000    0.250000    -2.00000    1.000000
     54 O1    c    0.500000    0.000000    0.750000    -2.00000    1.000000
     55 O1    c    0.500000    0.500000    0.250000    -2.00000    1.000000
     56 O1    c    0.500000    0.500000    0.750000    -2.00000    1.000000
     57 O1    c    0.000000    0.250000    0.000000    -2.00000    1.000000
     58 O1    c    0.000000    0.250000    0.500000    -2.00000    1.000000
     59 O1    c    0.000000    0.750000    0.000000    -2.00000    1.000000
     60 O1    c    0.000000    0.750000    0.500000    -2.00000    1.000000
     61 O1    c    0.500000    0.250000    0.000000    -2.00000    1.000000
     62 O1    c    0.500000    0.250000    0.500000    -2.00000    1.000000
     63 O1    c    0.500000    0.750000    0.000000    -2.00000    1.000000
     64 O1    c    0.500000    0.750000    0.500000    -2.00000    1.000000

*  General input information                                                   *

  Species output for all configurations :

  Species    Type    Atomic    Atomic    Charge       Radii (Angs)     Library
                     Number     Mass       (e)     Cova   Ionic  VDW   Symbol
    Mg1      Core       12      24.31   2.000000   1.100  0.000  1.640
    O1       Core        8      16.00  -2.000000   0.730  0.000  1.360

  Lattice summation method               =    Ewald          (3-D)
                                         =    Parry          (2-D)
                                         =    Saunders et al (1-D)
  Accuracy factor for lattice sums       =   12.000

  Time limit = Infinity

*  Output for configuration   1                                                *

  Components of energy :

  Interatomic potentials     =           0.00000000 eV
  Monopole - monopole (real) =        -935.48278368 eV
  Monopole - monopole (recip)=        -635.76454204 eV
  Monopole - monopole (total)=       -1571.24732573 eV
  Total lattice energy       =       -1571.24732573 eV
  Total lattice energy       =         -151601.3482 kJ/(mole unit cells)

  Electrostatic potential at atomic positions :

 Site  Atomic      Potential                Derivatives (V/Angs)
 No.   Label          (V)                 x           y           z
     1 Mg1   c    -24.550739           0.000000    0.000000    0.000000
     2 Mg1   c    -24.550739           0.000000    0.000000    0.000000
     3 Mg1   c    -24.550739           0.000000    0.000000    0.000000
     4 Mg1   c    -24.550739           0.000000    0.000000    0.000000
     5 Mg1   c    -24.550739           0.000000    0.000000    0.000000
     6 Mg1   c    -24.550739           0.000000    0.000000    0.000000
     7 Mg1   c    -24.550739           0.000000    0.000000    0.000000
     8 Mg1   c    -24.550739           0.000000    0.000000    0.000000
     9 Mg1   c    -24.550739           0.000000    0.000000    0.000000
    10 Mg1   c    -24.550739           0.000000    0.000000    0.000000
    11 Mg1   c    -24.550739           0.000000    0.000000    0.000000
    12 Mg1   c    -24.550739           0.000000    0.000000    0.000000
    13 Mg1   c    -24.550739           0.000000    0.000000    0.000000
    14 Mg1   c    -24.550739           0.000000    0.000000    0.000000
    15 Mg1   c    -24.550739           0.000000    0.000000    0.000000
    16 Mg1   c    -24.550739           0.000000    0.000000    0.000000
    17 Mg1   c    -24.550739           0.000000    0.000000    0.000000
    18 Mg1   c    -24.550739           0.000000    0.000000    0.000000
    19 Mg1   c    -24.550739           0.000000    0.000000    0.000000
    20 Mg1   c    -24.550739           0.000000    0.000000    0.000000
    21 Mg1   c    -24.550739           0.000000    0.000000    0.000000
    22 Mg1   c    -24.550739           0.000000    0.000000    0.000000
    23 Mg1   c    -24.550739           0.000000    0.000000    0.000000
    24 Mg1   c    -24.550739           0.000000    0.000000    0.000000
    25 Mg1   c    -24.550739           0.000000    0.000000    0.000000
    26 Mg1   c    -24.550739           0.000000    0.000000    0.000000
    27 Mg1   c    -24.550739           0.000000    0.000000    0.000000
    28 Mg1   c    -24.550739           0.000000    0.000000    0.000000
    29 Mg1   c    -24.550739           0.000000    0.000000    0.000000
    30 Mg1   c    -24.550739           0.000000    0.000000    0.000000
    31 Mg1   c    -24.550739           0.000000    0.000000    0.000000
    32 Mg1   c    -24.550739           0.000000    0.000000    0.000000
    33 O1    c     24.550739           0.000000    0.000000    0.000000
    34 O1    c     24.550739           0.000000    0.000000    0.000000
    35 O1    c     24.550739           0.000000    0.000000    0.000000
    36 O1    c     24.550739           0.000000    0.000000    0.000000
    37 O1    c     24.550739           0.000000    0.000000    0.000000
    38 O1    c     24.550739           0.000000    0.000000    0.000000
    39 O1    c     24.550739           0.000000    0.000000    0.000000
    40 O1    c     24.550739           0.000000    0.000000    0.000000
    41 O1    c     24.550739           0.000000    0.000000    0.000000
    42 O1    c     24.550739           0.000000    0.000000    0.000000
    43 O1    c     24.550739           0.000000    0.000000    0.000000
    44 O1    c     24.550739           0.000000    0.000000    0.000000
    45 O1    c     24.550739           0.000000    0.000000    0.000000
    46 O1    c     24.550739           0.000000    0.000000    0.000000
    47 O1    c     24.550739           0.000000    0.000000    0.000000
    48 O1    c     24.550739           0.000000    0.000000    0.000000
    49 O1    c     24.550739           0.000000    0.000000    0.000000
    50 O1    c     24.550739           0.000000    0.000000    0.000000
    51 O1    c     24.550739           0.000000    0.000000    0.000000
    52 O1    c     24.550739           0.000000    0.000000    0.000000
    53 O1    c     24.550739           0.000000    0.000000    0.000000
    54 O1    c     24.550739           0.000000    0.000000    0.000000
    55 O1    c     24.550739           0.000000    0.000000    0.000000
    56 O1    c     24.550739           0.000000    0.000000    0.000000
    57 O1    c     24.550739           0.000000    0.000000    0.000000
    58 O1    c     24.550739           0.000000    0.000000    0.000000
    59 O1    c     24.550739           0.000000    0.000000    0.000000
    60 O1    c     24.550739           0.000000    0.000000    0.000000
    61 O1    c     24.550739           0.000000    0.000000    0.000000
    62 O1    c     24.550739           0.000000    0.000000    0.000000
    63 O1    c     24.550739           0.000000    0.000000    0.000000
    64 O1    c     24.550739           0.000000    0.000000    0.000000

  Electric Field Gradients at atomic positions :

   Site no.                      EFGs (V/Angs**2)
                xx        xy        yy        xz        yz        zz
        1      0.0000    0.0000    0.0000    0.0000    0.0000    0.0000
        2      0.0000    0.0000    0.0000    0.0000    0.0000    0.0000
        3      0.0000    0.0000    0.0000    0.0000    0.0000    0.0000
        4      0.0000    0.0000    0.0000    0.0000    0.0000    0.0000
        5      0.0000    0.0000    0.0000    0.0000    0.0000    0.0000
        6      0.0000    0.0000    0.0000    0.0000    0.0000    0.0000
        7      0.0000    0.0000    0.0000    0.0000    0.0000    0.0000
        8      0.0000    0.0000    0.0000    0.0000    0.0000    0.0000
        9      0.0000    0.0000    0.0000    0.0000    0.0000    0.0000
       10      0.0000    0.0000    0.0000    0.0000    0.0000    0.0000
       11      0.0000    0.0000    0.0000    0.0000    0.0000    0.0000
       12      0.0000    0.0000    0.0000    0.0000    0.0000    0.0000
       13      0.0000    0.0000    0.0000    0.0000    0.0000    0.0000
       14      0.0000    0.0000    0.0000    0.0000    0.0000    0.0000
       15      0.0000    0.0000    0.0000    0.0000    0.0000    0.0000
       16      0.0000    0.0000    0.0000    0.0000    0.0000    0.0000
       17      0.0000    0.0000    0.0000    0.0000    0.0000    0.0000
       18      0.0000    0.0000    0.0000    0.0000    0.0000    0.0000
       19      0.0000    0.0000    0.0000    0.0000    0.0000    0.0000
       20      0.0000    0.0000    0.0000    0.0000    0.0000    0.0000
       21      0.0000    0.0000    0.0000    0.0000    0.0000    0.0000
       22      0.0000    0.0000    0.0000    0.0000    0.0000    0.0000
       23      0.0000    0.0000    0.0000    0.0000    0.0000    0.0000
       24      0.0000    0.0000    0.0000    0.0000    0.0000    0.0000
       25      0.0000    0.0000    0.0000    0.0000    0.0000    0.0000
       26      0.0000    0.0000    0.0000    0.0000    0.0000    0.0000
       27      0.0000    0.0000    0.0000    0.0000    0.0000    0.0000
       28      0.0000    0.0000    0.0000    0.0000    0.0000    0.0000
       29      0.0000    0.0000    0.0000    0.0000    0.0000    0.0000
       30      0.0000    0.0000    0.0000    0.0000    0.0000    0.0000
       31      0.0000    0.0000    0.0000    0.0000    0.0000    0.0000
       32      0.0000    0.0000    0.0000    0.0000    0.0000    0.0000
       33      0.0000    0.0000    0.0000    0.0000    0.0000    0.0000
       34      0.0000    0.0000    0.0000    0.0000    0.0000    0.0000
       35      0.0000    0.0000    0.0000    0.0000    0.0000    0.0000
       36      0.0000    0.0000    0.0000    0.0000    0.0000    0.0000
       37      0.0000    0.0000    0.0000    0.0000    0.0000    0.0000
       38      0.0000    0.0000    0.0000    0.0000    0.0000    0.0000
       39      0.0000    0.0000    0.0000    0.0000    0.0000    0.0000
       40      0.0000    0.0000    0.0000    0.0000    0.0000    0.0000
       41      0.0000    0.0000    0.0000    0.0000    0.0000    0.0000
       42      0.0000    0.0000    0.0000    0.0000    0.0000    0.0000
       43      0.0000    0.0000    0.0000    0.0000    0.0000    0.0000
       44      0.0000    0.0000    0.0000    0.0000    0.0000    0.0000
       45      0.0000    0.0000    0.0000    0.0000    0.0000    0.0000
       46      0.0000    0.0000    0.0000    0.0000    0.0000    0.0000
       47      0.0000    0.0000    0.0000    0.0000    0.0000    0.0000
       48      0.0000    0.0000    0.0000    0.0000    0.0000    0.0000
       49      0.0000    0.0000    0.0000    0.0000    0.0000    0.0000
       50      0.0000    0.0000    0.0000    0.0000    0.0000    0.0000
       51      0.0000    0.0000    0.0000    0.0000    0.0000    0.0000
       52      0.0000    0.0000    0.0000    0.0000    0.0000    0.0000
       53      0.0000    0.0000    0.0000    0.0000    0.0000    0.0000
       54      0.0000    0.0000    0.0000    0.0000    0.0000    0.0000
       55      0.0000    0.0000    0.0000    0.0000    0.0000    0.0000
       56      0.0000    0.0000    0.0000    0.0000    0.0000    0.0000
       57      0.0000    0.0000    0.0000    0.0000    0.0000    0.0000
       58      0.0000    0.0000    0.0000    0.0000    0.0000    0.0000
       59      0.0000    0.0000    0.0000    0.0000    0.0000    0.0000
       60      0.0000    0.0000    0.0000    0.0000    0.0000    0.0000
       61      0.0000    0.0000    0.0000    0.0000    0.0000    0.0000
       62      0.0000    0.0000    0.0000    0.0000    0.0000    0.0000
       63      0.0000    0.0000    0.0000    0.0000    0.0000    0.0000
       64      0.0000    0.0000    0.0000    0.0000    0.0000    0.0000

  EFG Tensor properties :

   Site no.    Diagonalised EFGs (V/Angs**2)          eVzz/h        Asymmetry
                 xx        yy        zz             (MHz/barn)      Parameter
        1       0.0000    0.0000    0.0000             0.0000        0.0003
        2       0.0000    0.0000    0.0000             0.0000        0.0002
        3       0.0000    0.0000    0.0000             0.0000        0.0004
        4       0.0000    0.0000    0.0000             0.0000        0.0088
        5       0.0000    0.0000    0.0000             0.0000        0.0004
        6       0.0000    0.0000    0.0000             0.0000        0.0093
        7       0.0000    0.0000    0.0000             0.0000        0.0091
        8       0.0000    0.0000    0.0000             0.0000        0.0001
        9       0.0000    0.0000    0.0000             0.0000        0.0091
       10       0.0000    0.0000    0.0000             0.0000        0.0093
       11       0.0000    0.0000    0.0000             0.0000        0.0094
       12       0.0000    0.0000    0.0000             0.0000        0.0092
       13       0.0000    0.0000    0.0000             0.0000        0.0001
       14       0.0000    0.0000    0.0000             0.0000        0.0003
       15       0.0000    0.0000    0.0000             0.0000        0.0001
       16       0.0000    0.0000    0.0000             0.0000        0.0002
       17       0.0000    0.0000    0.0000             0.0000        0.0091
       18       0.0000    0.0000    0.0000             0.0000        0.0002
       19       0.0000    0.0000    0.0000             0.0000        0.0092
       20       0.0000    0.0000    0.0000             0.0000        0.0002
       21       0.0000    0.0000    0.0000             0.0000        0.0090
       22       0.0000    0.0000    0.0000             0.0000        0.0004
       23       0.0000    0.0000    0.0000             0.0000        0.0085
       24       0.0000    0.0000    0.0000             0.0000        0.0001
       25       0.0000    0.0000    0.0000             0.0000        0.0089
       26       0.0000    0.0000    0.0000             0.0000        0.0088
       27       0.0000    0.0000    0.0000             0.0000        0.0004
       28       0.0000    0.0000    0.0000             0.0000        0.0002
       29       0.0000    0.0000    0.0000             0.0000        0.0089
       30       0.0000    0.0000    0.0000             0.0000        0.0090
       31       0.0000    0.0000    0.0000             0.0000        0.0001
       32       0.0000    0.0000    0.0000             0.0000        0.0002
       33       0.0000    0.0000    0.0000             0.0000        0.0002
       34       0.0000    0.0000    0.0000             0.0000        0.0001
       35       0.0000    0.0000    0.0000             0.0000        0.0002
       36       0.0000    0.0000    0.0000             0.0000        0.0003
       37       0.0000    0.0000    0.0000             0.0000        0.0004
       38       0.0000    0.0000    0.0000             0.0000        0.0003
       39       0.0000    0.0000    0.0000             0.0000        0.0002
       40       0.0000    0.0000    0.0000             0.0000        0.0003
       41       0.0000    0.0000    0.0000             0.0000        0.0005
       42       0.0000    0.0000    0.0000             0.0000        0.0087
       43       0.0000    0.0000    0.0000             0.0000        0.0088
       44       0.0000    0.0000    0.0000             0.0000        0.0003
       45       0.0000    0.0000    0.0000             0.0000        0.0002
       46       0.0000    0.0000    0.0000             0.0000        0.0087
       47       0.0000    0.0000    0.0000             0.0000        0.0087
       48       0.0000    0.0000    0.0000             0.0000        0.0001
       49       0.0000    0.0000    0.0000             0.0000        0.0002
       50       0.0000    0.0000    0.0000             0.0000        0.0004
       51       0.0000    0.0000    0.0000             0.0000        0.0089
       52       0.0000    0.0000    0.0000             0.0000        0.0091
       53       0.0000    0.0000    0.0000             0.0000        0.0090
       54       0.0000    0.0000    0.0000             0.0000        0.0092
       55       0.0000    0.0000    0.0000             0.0000        0.0001
       56       0.0000    0.0000    0.0000             0.0000        0.0001
       57       0.0000    0.0000    0.0000             0.0000        0.0006
       58       0.0000    0.0000    0.0000             0.0000        0.0089
       59       0.0000    0.0000    0.0000             0.0000        0.0001
       60       0.0000    0.0000    0.0000             0.0000        0.0089
       61       0.0000    0.0000    0.0000             0.0000        0.0088
       62       0.0000    0.0000    0.0000             0.0000        0.0001
       63       0.0000    0.0000    0.0000             0.0000        0.0089
       64       0.0000    0.0000    0.0000             0.0000        0.0004

  Total time to end of lattice properties =       0.1108 s

  Timing analysis for GULP :

  Task / Subroutine                                          Time (Seconds)
  Calculation of reciprocal space energy and derivatives          0.0809
  Calculation of real space energy and derivatives                0.0250

  Job Finished at 11:23.43 28th March      2013